49923
0 0 1 1 1 1 1 1 1 0 0 1 0 0 0 1 1 1 0 0 0 1 0 0 1 0 1 0 1 1 
16 4 16 11 2 26 15 11 21 21 6 17 28 17 11 17 8 8 24 21 16 21 5 24 3 16 16 11 29 17 28 29 4 16 24 4 5 5 24 17 7 29 6 4 5 17 3 15 17 2 2 16 17 16 3 11 11 26 11 6 29 2 7 8 4 6 15 28 4 7 15 8 7 3 3 21 5 5 4 24 17 24 8 7 29 3 4 5 16 6 28 26 26 26 21 3 26 28 8 28 11 15 29 7 4 26 4 2 21 8 21 7 16 17 6 8 29 6 5 2 26 11 28 29 29 16 2 24 6 17 24 16 4 3 26 3 21 26 6 4 6 28 11 17 11 21 2 21 11 6 15 6 17 15 28 8 24 24 3 8 8 2 3 28 21 16 3 26 3 2 21 6 29 8 29 24 24 28 29 8 2 15 15 6 4 26 11 2 21 15 17 24 29 4 16 24 7 28 8 29 
